78
0 62 37 73 18 10 50 57 35 8 
14 69 76 27 47 59 46 12 21 63 
43 64 53 7 38 31 15 40 70 60 
51 25 26 5 75 74 77 65 22 1 
49 55 30 24 9 29 39 36 2 16 
41 33 34 6 3 67 68 13 19 45 
66 58 72 11 52 54 56 71 23 61 
17 48 44 20 42 28 32 4 
